NAME : prob30e.7213.tour
COMMENT : Cost = 0_7213
COMMENT : Found by LKH [Keld Helsgaun] Sun Sep 17 01:06:41 2017
TYPE : TOUR
DIMENSION : 61
TOUR_SECTION
1
57
49
47
48
51
39
59
38
37
58
33
17
43
60
7
40
56
13
54
46
30
42
29
44
21
35
26
36
53
9
41
55
34
32
52
5
45
3
16
50
25
8
24
61
11
14
4
28
19
31
18
22
15
23
20
6
27
10
12
2
-1
EOF
